\* Problem: Blade Runner *\

Minimize
 obj: + 468 x_1 + 727 x_2 + 348 x_3 + 1007 x_4 + 1086 x_5 + 707 x_6
 + 540 x_7 + 533 x_8 + 787 x_9 + 408 x_10 + 1017 x_11 + 1104 x_12
 + 725 x_13 + 558 x_14 + 74 x_15 + 859 x_16 + 910 x_17 + 531 x_18
 + 1035 x_19 + 1086 x_20 + 707 x_21 + 582 x_22 + 891 x_23 + 942 x_24
 + 563 x_25 + 1053 x_26 + 725 x_27 + 600 x_28 + 438 x_29 + 406 x_30
 + 1193 x_31 + 1197 x_32 + 830 x_33 + 1406 x_34 + 1422 x_35 + 1043 x_36
 + 1039 x_37 + 1246 x_38 + 1257 x_39 + 883 x_40 + 1424 x_41 + 1061 x_42
 + 1057 x_43 + 879 x_44 + 1262 x_45 + 1278 x_46 + 899 x_47 + 1438 x_48
 + 1075 x_49 + 1071 x_50 + 1294 x_51 + 931 x_52 + 1089 x_53 + 927 x_54
 + 895 x_55 + 826 x_56 + 695 x_57 + 954 x_58 + 819 x_59 + 1194 x_60
 + 1313 x_61 + 1144 x_62 + 977 x_63 + 727 x_64 + 986 x_65 + 844 x_66
 + 1211 x_67 + 1161 x_68 + 994 x_69 + 510 x_70 + 1086 x_71 + 1137 x_72
 + 999 x_73 + 1236 x_74 + 1144 x_75 + 1019 x_76 + 1091 x_77 + 999 x_78
 + 1253 x_79 + 1161 x_80 + 1036 x_81 + 874 x_82 + 874 x_83 + 1420 x_84
 + 1424 x_85 + 1301 x_86 + 1633 x_87 + 1480 x_88 + 1476 x_89 + 1452 x_90
 + 1319 x_91 + 1493 x_92 + 1315 x_93 + 1489 x_94 + 1367 x_95 + 1508 x_96
 + 1525 x_97 + 1363 x_98 + 1363 x_99 + 1301 x_100 + 478 x_101
 + 894 x_102 + 893 x_103 + 537 x_104 + 1198 x_105 + 1220 x_106
 + 841 x_107 + 842 x_108 + 953 x_109 + 953 x_110 + 596 x_111
 + 1216 x_112 + 1238 x_113 + 859 x_114 + 860 x_115 + 597 x_116
 + 1026 x_117 + 1048 x_118 + 669 x_119 + 1202 x_120 + 845 x_121
 + 846 x_122 + 1058 x_123 + 1080 x_124 + 701 x_125 + 1220 x_126
 + 863 x_127 + 864 x_128 + 702 x_129 + 670 x_130 + 1193 x_131
 + 1197 x_132 + 836 x_133 + 1406 x_134 + 1049 x_135 + 1050 x_136
 + 1246 x_137 + 889 x_138 + 1424 x_139 + 1068 x_140 + 890 x_141
 + 1262 x_142 + 905 x_143 + 1082 x_144 + 1294 x_145 + 1100 x_146
 + 938 x_147 + 906 x_148 + 837 x_149 + 1121 x_150 + 1120 x_151
 + 1005 x_152 + 1425 x_153 + 1278 x_154 + 1279 x_155 + 1153 x_156
 + 1032 x_157 + 1443 x_158 + 1295 x_159 + 1296 x_160 + 1033 x_161
 + 1253 x_162 + 1137 x_163 + 1429 x_164 + 1282 x_165 + 1283 x_166
 + 1285 x_167 + 1137 x_168 + 1300 x_169 + 1138 x_170 + 1138 x_171
 + 1420 x_172 + 1307 x_173 + 1487 x_174 + 1504 x_175 + 1326 x_176
 + 1519 x_177 + 1374 x_178 + 1374 x_179 + 1305 x_180 + 1006 x_181
 + 538 x_182 + 659 x_183 + 918 x_184 + 579 x_185 + 1077 x_186
 + 1208 x_187 + 829 x_188 + 662 x_189 + 662 x_190 + 921 x_191
 + 581 x_192 + 1095 x_193 + 832 x_194 + 665 x_195 + 247 x_196
 + 991 x_197 + 1080 x_198 + 701 x_199 + 1119 x_200 + 829 x_201
 + 704 x_202 + 1023 x_203 + 704 x_204 + 1151 x_205 + 707 x_206
 + 579 x_207 + 576 x_208 + 1384 x_209 + 1046 x_210 + 1528 x_211
 + 1165 x_212 + 1161 x_213 + 1387 x_214 + 1049 x_215 + 1164 x_216
 + 1045 x_217 + 1432 x_218 + 1069 x_219 + 1193 x_220 + 1068 x_221
 + 1065 x_222 + 1042 x_223 + 778 x_224 + 1037 x_225 + 896 x_226
 + 1196 x_227 + 1146 x_228 + 979 x_229 + 781 x_230 + 898 x_231
 + 997 x_232 + 564 x_233 + 1110 x_234 + 1018 x_235 + 1021 x_236
 + 1053 x_237 + 925 x_238 + 893 x_239 + 1503 x_240 + 1363 x_241
 + 1478 x_242 + 1369 x_243 + 1382 x_244 + 1359 x_245 + 561 x_246
 + 1085 x_247 + 1084 x_248 + 766 x_249 + 1320 x_250 + 963 x_251
 + 964 x_252 + 1088 x_253 + 769 x_254 + 1323 x_255 + 966 x_256
 + 967 x_257 + 770 x_258 + 1196 x_259 + 839 x_260 + 1324 x_261
 + 968 x_262 + 1199 x_263 + 842 x_264 + 971 x_265 + 843 x_266
 + 840 x_267 + 1384 x_268 + 1052 x_269 + 1172 x_270 + 1175 x_271
 + 1056 x_272 + 1079 x_273 + 1076 x_274 + 1053 x_275 + 1204 x_276
 + 1083 x_277 + 1281 x_278 + 1207 x_279 + 1313 x_280 + 1087 x_281
 + 1285 x_282 + 1189 x_283 + 1157 x_284 + 1370 x_285 + 1084 x_286
 + 767 x_287 + 244 x_288

Subject To
 r_1: + x_288 + x_287 + x_286 + x_285 + x_284 + x_283 + x_282 + x_281
 + x_280 + x_279 + x_278 + x_277 + x_276 + x_275 + x_274 + x_273 + x_272
 + x_271 + x_270 + x_269 + x_268 + x_267 + x_266 + x_265 + x_264 + x_263
 + x_262 + x_261 + x_260 + x_259 + x_258 + x_257 + x_256 + x_255 + x_254
 + x_253 + x_252 + x_251 + x_250 + x_249 + x_248 + x_247 + x_246 + x_245
 + x_244 + x_243 + x_242 + x_241 + x_240 + x_239 + x_238 + x_237 + x_236
 + x_235 + x_234 + x_233 + x_232 + x_231 + x_230 + x_229 + x_228 + x_227
 + x_226 + x_225 + x_224 + x_223 + x_222 + x_221 + x_220 + x_219 + x_218
 + x_217 + x_216 + x_215 + x_214 + x_213 + x_212 + x_211 + x_210 + x_209
 + x_208 + x_207 + x_206 + x_205 + x_204 + x_203 + x_202 + x_201 + x_200
 + x_199 + x_198 + x_197 + x_196 + x_195 + x_194 + x_193 + x_192 + x_191
 + x_190 + x_189 + x_188 + x_187 + x_186 + x_185 + x_184 + x_183 = 1
 r_2: + x_287 + x_286 + x_285 + x_284 + x_283 + x_282 + x_281 + x_280
 + x_279 + x_278 + x_277 + x_276 + x_275 + x_274 + x_273 + x_272 + x_271
 + x_270 + x_269 + x_268 + x_267 + x_266 + x_265 + x_264 + x_263 + x_262
 + x_261 + x_260 + x_259 + x_258 + x_257 + x_256 + x_255 + x_254 + x_253
 + x_252 + x_251 + x_250 + x_249 + x_248 + x_247 + x_182 + x_181 + x_180
 + x_179 + x_178 + x_177 + x_176 + x_175 + x_174 + x_173 + x_172 + x_171
 + x_170 + x_169 + x_168 + x_167 + x_166 + x_165 + x_164 + x_163 + x_162
 + x_161 + x_160 + x_159 + x_158 + x_157 + x_156 + x_155 + x_154 + x_153
 + x_152 + x_151 + x_150 + x_149 + x_148 + x_147 + x_146 + x_145 + x_144
 + x_143 + x_142 + x_141 + x_140 + x_139 + x_138 + x_137 + x_136 + x_135
 + x_134 + x_133 + x_132 + x_131 + x_130 + x_129 + x_128 + x_127 + x_126
 + x_125 + x_124 + x_123 + x_122 + x_121 + x_120 + x_119 + x_118 + x_117
 + x_116 + x_115 + x_114 + x_113 + x_112 + x_111 + x_110 + x_109 + x_108
 + x_107 + x_106 + x_105 + x_104 + x_103 + x_102 = 1
 r_3: + x_286 + x_285 + x_284 + x_283 + x_282 + x_281 + x_280 + x_279
 + x_278 + x_277 + x_276 + x_246 + x_245 + x_244 + x_243 + x_242 + x_241
 + x_240 + x_239 + x_238 + x_237 + x_236 + x_235 + x_234 + x_233 + x_232
 + x_231 + x_230 + x_229 + x_228 + x_227 + x_226 + x_225 + x_224 + x_181
 + x_180 + x_179 + x_178 + x_177 + x_176 + x_175 + x_174 + x_173 + x_172
 + x_171 + x_170 + x_169 + x_168 + x_167 + x_166 + x_165 + x_164 + x_163
 + x_162 + x_161 + x_160 + x_159 + x_158 + x_157 + x_156 + x_155 + x_154
 + x_153 + x_152 + x_151 + x_150 + x_101 + x_100 + x_99 + x_98 + x_97
 + x_96 + x_95 + x_94 + x_93 + x_92 + x_91 + x_90 + x_89 + x_88 + x_87
 + x_86 + x_85 + x_84 + x_83 + x_82 + x_81 + x_80 + x_79 + x_78 + x_77
 + x_76 + x_75 + x_74 + x_73 + x_72 + x_71 + x_70 + x_69 + x_68 + x_67
 + x_66 + x_65 + x_64 + x_63 + x_62 + x_61 + x_60 + x_59 + x_58 + x_57
 = 1
 r_4: + x_285 + x_275 + x_274 + x_273 + x_272 + x_271 + x_270 + x_269
 + x_268 + x_245 + x_244 + x_243 + x_242 + x_241 + x_240 + x_223 + x_222
 + x_221 + x_220 + x_219 + x_218 + x_217 + x_216 + x_215 + x_214 + x_213
 + x_212 + x_211 + x_210 + x_209 + x_180 + x_179 + x_178 + x_177 + x_176
 + x_175 + x_174 + x_173 + x_172 + x_149 + x_148 + x_147 + x_146 + x_145
 + x_144 + x_143 + x_142 + x_141 + x_140 + x_139 + x_138 + x_137 + x_136
 + x_135 + x_134 + x_133 + x_132 + x_131 + x_100 + x_99 + x_98 + x_97
 + x_96 + x_95 + x_94 + x_93 + x_92 + x_91 + x_90 + x_89 + x_88 + x_87
 + x_86 + x_85 + x_84 + x_56 + x_55 + x_54 + x_53 + x_52 + x_51 + x_50
 + x_49 + x_48 + x_47 + x_46 + x_45 + x_44 + x_43 + x_42 + x_41 + x_40
 + x_39 + x_38 + x_37 + x_36 + x_35 + x_34 + x_33 + x_32 + x_31 = 1
 r_5: + x_284 + x_283 + x_282 + x_274 + x_273 + x_267 + x_266 + x_265
 + x_264 + x_263 + x_262 + x_261 + x_260 + x_259 + x_244 + x_239 + x_238
 + x_237 + x_236 + x_235 + x_234 + x_222 + x_221 + x_220 + x_219 + x_218
 + x_208 + x_207 + x_206 + x_205 + x_204 + x_203 + x_202 + x_201 + x_200
 + x_199 + x_198 + x_197 + x_179 + x_178 + x_177 + x_171 + x_170 + x_169
 + x_168 + x_167 + x_166 + x_165 + x_164 + x_163 + x_162 + x_148 + x_147
 + x_146 + x_145 + x_144 + x_143 + x_142 + x_130 + x_129 + x_128 + x_127
 + x_126 + x_125 + x_124 + x_123 + x_122 + x_121 + x_120 + x_119 + x_118
 + x_117 + x_99 + x_98 + x_97 + x_96 + x_95 + x_94 + x_83 + x_82 + x_81
 + x_80 + x_79 + x_78 + x_77 + x_76 + x_75 + x_74 + x_73 + x_72 + x_71
 + x_55 + x_54 + x_53 + x_52 + x_51 + x_50 + x_49 + x_48 + x_47 + x_46
 + x_45 + x_30 + x_29 + x_28 + x_27 + x_26 + x_25 + x_24 + x_23 + x_22
 + x_21 + x_20 + x_19 + x_18 + x_17 + x_16 = 1
 r_6: + x_283 + x_281 + x_280 + x_279 + x_273 + x_272 + x_271 + x_266
 + x_265 + x_264 + x_263 + x_258 + x_257 + x_256 + x_255 + x_254 + x_253
 + x_243 + x_238 + x_237 + x_233 + x_232 + x_231 + x_230 + x_221 + x_217
 + x_216 + x_215 + x_214 + x_207 + x_206 + x_205 + x_204 + x_203 + x_196
 + x_195 + x_194 + x_193 + x_192 + x_191 + x_190 + x_178 + x_176 + x_175
 + x_170 + x_169 + x_168 + x_167 + x_161 + x_160 + x_159 + x_158 + x_157
 + x_156 + x_147 + x_146 + x_145 + x_141 + x_140 + x_139 + x_138 + x_137
 + x_129 + x_128 + x_127 + x_126 + x_125 + x_124 + x_123 + x_116 + x_115
 + x_114 + x_113 + x_112 + x_111 + x_110 + x_109 + x_98 + x_97 + x_93
 + x_92 + x_91 + x_90 + x_82 + x_81 + x_80 + x_79 + x_78 + x_77 + x_70
 + x_69 + x_68 + x_67 + x_66 + x_65 + x_64 + x_54 + x_53 + x_52 + x_51
 + x_44 + x_43 + x_42 + x_41 + x_40 + x_39 + x_38 + x_29 + x_28 + x_27
 + x_26 + x_25 + x_24 + x_23 + x_15 + x_14 + x_13 + x_12 + x_11 + x_10
 + x_9 + x_8 = 1
 r_7: + x_282 + x_280 + x_278 + x_271 + x_270 + x_265 + x_262 + x_261
 + x_257 + x_256 + x_255 + x_252 + x_251 + x_250 + x_242 + x_237 + x_236
 + x_232 + x_229 + x_228 + x_227 + x_220 + x_216 + x_213 + x_212 + x_211
 + x_206 + x_205 + x_202 + x_201 + x_200 + x_195 + x_194 + x_193 + x_189
 + x_188 + x_187 + x_186 + x_177 + x_175 + x_174 + x_169 + x_166 + x_165
 + x_164 + x_160 + x_159 + x_158 + x_155 + x_154 + x_153 + x_146 + x_144
 + x_140 + x_139 + x_136 + x_135 + x_134 + x_128 + x_127 + x_126 + x_122
 + x_121 + x_120 + x_115 + x_114 + x_113 + x_112 + x_108 + x_107 + x_106
 + x_105 + x_97 + x_96 + x_92 + x_89 + x_88 + x_87 + x_81 + x_80 + x_79
 + x_76 + x_75 + x_74 + x_69 + x_68 + x_67 + x_63 + x_62 + x_61 + x_60
 + x_53 + x_50 + x_49 + x_48 + x_43 + x_42 + x_41 + x_37 + x_36 + x_35
 + x_34 + x_28 + x_27 + x_26 + x_22 + x_21 + x_20 + x_19 + x_14 + x_13
 + x_12 + x_11 + x_7 + x_6 + x_5 + x_4 = 1
 r_8: + x_277 + x_269 + x_264 + x_260 + x_256 + x_254 + x_251 + x_249
 + x_248 + x_241 + x_235 + x_231 + x_228 + x_226 + x_225 + x_219 + x_215
 + x_212 + x_210 + x_204 + x_201 + x_199 + x_198 + x_194 + x_192 + x_191
 + x_188 + x_187 + x_185 + x_184 + x_173 + x_168 + x_165 + x_163 + x_159
 + x_157 + x_154 + x_152 + x_151 + x_143 + x_138 + x_135 + x_133 + x_132
 + x_127 + x_125 + x_124 + x_121 + x_119 + x_118 + x_114 + x_113 + x_111
 + x_110 + x_107 + x_106 + x_104 + x_103 + x_95 + x_91 + x_88 + x_86
 + x_85 + x_80 + x_78 + x_75 + x_73 + x_72 + x_68 + x_66 + x_65 + x_62
 + x_61 + x_59 + x_58 + x_52 + x_49 + x_47 + x_46 + x_42 + x_40 + x_39
 + x_36 + x_35 + x_33 + x_32 + x_27 + x_25 + x_24 + x_21 + x_20 + x_18
 + x_17 + x_13 + x_12 + x_10 + x_9 + x_6 + x_5 + x_3 + x_2 = 1
 r_9: + x_279 + x_276 + x_268 + x_263 + x_261 + x_259 + x_255 + x_253
 + x_250 + x_248 + x_247 + x_240 + x_234 + x_230 + x_227 + x_225 + x_224
 + x_218 + x_214 + x_211 + x_209 + x_205 + x_203 + x_200 + x_198 + x_197
 + x_193 + x_191 + x_190 + x_187 + x_186 + x_184 + x_183 + x_172 + x_167
 + x_164 + x_162 + x_158 + x_156 + x_153 + x_151 + x_150 + x_145 + x_142
 + x_139 + x_137 + x_134 + x_132 + x_131 + x_126 + x_124 + x_123 + x_120
 + x_118 + x_117 + x_113 + x_112 + x_110 + x_109 + x_106 + x_105 + x_103
 + x_102 + x_94 + x_90 + x_87 + x_85 + x_84 + x_79 + x_77 + x_74 + x_72
 + x_71 + x_67 + x_65 + x_64 + x_61 + x_60 + x_58 + x_57 + x_51 + x_48
 + x_46 + x_45 + x_41 + x_39 + x_38 + x_35 + x_34 + x_32 + x_31 + x_26
 + x_24 + x_23 + x_20 + x_19 + x_17 + x_16 + x_12 + x_11 + x_9 + x_8
 + x_5 + x_4 + x_2 + x_1 = 1

Bounds
 0 <= x_1 <= 1
 0 <= x_2 <= 1
 0 <= x_3 <= 1
 0 <= x_4 <= 1
 0 <= x_5 <= 1
 0 <= x_6 <= 1
 0 <= x_7 <= 1
 0 <= x_8 <= 1
 0 <= x_9 <= 1
 0 <= x_10 <= 1
 0 <= x_11 <= 1
 0 <= x_12 <= 1
 0 <= x_13 <= 1
 0 <= x_14 <= 1
 0 <= x_15 <= 1
 0 <= x_16 <= 1
 0 <= x_17 <= 1
 0 <= x_18 <= 1
 0 <= x_19 <= 1
 0 <= x_20 <= 1
 0 <= x_21 <= 1
 0 <= x_22 <= 1
 0 <= x_23 <= 1
 0 <= x_24 <= 1
 0 <= x_25 <= 1
 0 <= x_26 <= 1
 0 <= x_27 <= 1
 0 <= x_28 <= 1
 0 <= x_29 <= 1
 0 <= x_30 <= 1
 0 <= x_31 <= 1
 0 <= x_32 <= 1
 0 <= x_33 <= 1
 0 <= x_34 <= 1
 0 <= x_35 <= 1
 0 <= x_36 <= 1
 0 <= x_37 <= 1
 0 <= x_38 <= 1
 0 <= x_39 <= 1
 0 <= x_40 <= 1
 0 <= x_41 <= 1
 0 <= x_42 <= 1
 0 <= x_43 <= 1
 0 <= x_44 <= 1
 0 <= x_45 <= 1
 0 <= x_46 <= 1
 0 <= x_47 <= 1
 0 <= x_48 <= 1
 0 <= x_49 <= 1
 0 <= x_50 <= 1
 0 <= x_51 <= 1
 0 <= x_52 <= 1
 0 <= x_53 <= 1
 0 <= x_54 <= 1
 0 <= x_55 <= 1
 0 <= x_56 <= 1
 0 <= x_57 <= 1
 0 <= x_58 <= 1
 0 <= x_59 <= 1
 0 <= x_60 <= 1
 0 <= x_61 <= 1
 0 <= x_62 <= 1
 0 <= x_63 <= 1
 0 <= x_64 <= 1
 0 <= x_65 <= 1
 0 <= x_66 <= 1
 0 <= x_67 <= 1
 0 <= x_68 <= 1
 0 <= x_69 <= 1
 0 <= x_70 <= 1
 0 <= x_71 <= 1
 0 <= x_72 <= 1
 0 <= x_73 <= 1
 0 <= x_74 <= 1
 0 <= x_75 <= 1
 0 <= x_76 <= 1
 0 <= x_77 <= 1
 0 <= x_78 <= 1
 0 <= x_79 <= 1
 0 <= x_80 <= 1
 0 <= x_81 <= 1
 0 <= x_82 <= 1
 0 <= x_83 <= 1
 0 <= x_84 <= 1
 0 <= x_85 <= 1
 0 <= x_86 <= 1
 0 <= x_87 <= 1
 0 <= x_88 <= 1
 0 <= x_89 <= 1
 0 <= x_90 <= 1
 0 <= x_91 <= 1
 0 <= x_92 <= 1
 0 <= x_93 <= 1
 0 <= x_94 <= 1
 0 <= x_95 <= 1
 0 <= x_96 <= 1
 0 <= x_97 <= 1
 0 <= x_98 <= 1
 0 <= x_99 <= 1
 0 <= x_100 <= 1
 0 <= x_101 <= 1
 0 <= x_102 <= 1
 0 <= x_103 <= 1
 0 <= x_104 <= 1
 0 <= x_105 <= 1
 0 <= x_106 <= 1
 0 <= x_107 <= 1
 0 <= x_108 <= 1
 0 <= x_109 <= 1
 0 <= x_110 <= 1
 0 <= x_111 <= 1
 0 <= x_112 <= 1
 0 <= x_113 <= 1
 0 <= x_114 <= 1
 0 <= x_115 <= 1
 0 <= x_116 <= 1
 0 <= x_117 <= 1
 0 <= x_118 <= 1
 0 <= x_119 <= 1
 0 <= x_120 <= 1
 0 <= x_121 <= 1
 0 <= x_122 <= 1
 0 <= x_123 <= 1
 0 <= x_124 <= 1
 0 <= x_125 <= 1
 0 <= x_126 <= 1
 0 <= x_127 <= 1
 0 <= x_128 <= 1
 0 <= x_129 <= 1
 0 <= x_130 <= 1
 0 <= x_131 <= 1
 0 <= x_132 <= 1
 0 <= x_133 <= 1
 0 <= x_134 <= 1
 0 <= x_135 <= 1
 0 <= x_136 <= 1
 0 <= x_137 <= 1
 0 <= x_138 <= 1
 0 <= x_139 <= 1
 0 <= x_140 <= 1
 0 <= x_141 <= 1
 0 <= x_142 <= 1
 0 <= x_143 <= 1
 0 <= x_144 <= 1
 0 <= x_145 <= 1
 0 <= x_146 <= 1
 0 <= x_147 <= 1
 0 <= x_148 <= 1
 0 <= x_149 <= 1
 0 <= x_150 <= 1
 0 <= x_151 <= 1
 0 <= x_152 <= 1
 0 <= x_153 <= 1
 0 <= x_154 <= 1
 0 <= x_155 <= 1
 0 <= x_156 <= 1
 0 <= x_157 <= 1
 0 <= x_158 <= 1
 0 <= x_159 <= 1
 0 <= x_160 <= 1
 0 <= x_161 <= 1
 0 <= x_162 <= 1
 0 <= x_163 <= 1
 0 <= x_164 <= 1
 0 <= x_165 <= 1
 0 <= x_166 <= 1
 0 <= x_167 <= 1
 0 <= x_168 <= 1
 0 <= x_169 <= 1
 0 <= x_170 <= 1
 0 <= x_171 <= 1
 0 <= x_172 <= 1
 0 <= x_173 <= 1
 0 <= x_174 <= 1
 0 <= x_175 <= 1
 0 <= x_176 <= 1
 0 <= x_177 <= 1
 0 <= x_178 <= 1
 0 <= x_179 <= 1
 0 <= x_180 <= 1
 0 <= x_181 <= 1
 0 <= x_182 <= 1
 0 <= x_183 <= 1
 0 <= x_184 <= 1
 0 <= x_185 <= 1
 0 <= x_186 <= 1
 0 <= x_187 <= 1
 0 <= x_188 <= 1
 0 <= x_189 <= 1
 0 <= x_190 <= 1
 0 <= x_191 <= 1
 0 <= x_192 <= 1
 0 <= x_193 <= 1
 0 <= x_194 <= 1
 0 <= x_195 <= 1
 0 <= x_196 <= 1
 0 <= x_197 <= 1
 0 <= x_198 <= 1
 0 <= x_199 <= 1
 0 <= x_200 <= 1
 0 <= x_201 <= 1
 0 <= x_202 <= 1
 0 <= x_203 <= 1
 0 <= x_204 <= 1
 0 <= x_205 <= 1
 0 <= x_206 <= 1
 0 <= x_207 <= 1
 0 <= x_208 <= 1
 0 <= x_209 <= 1
 0 <= x_210 <= 1
 0 <= x_211 <= 1
 0 <= x_212 <= 1
 0 <= x_213 <= 1
 0 <= x_214 <= 1
 0 <= x_215 <= 1
 0 <= x_216 <= 1
 0 <= x_217 <= 1
 0 <= x_218 <= 1
 0 <= x_219 <= 1
 0 <= x_220 <= 1
 0 <= x_221 <= 1
 0 <= x_222 <= 1
 0 <= x_223 <= 1
 0 <= x_224 <= 1
 0 <= x_225 <= 1
 0 <= x_226 <= 1
 0 <= x_227 <= 1
 0 <= x_228 <= 1
 0 <= x_229 <= 1
 0 <= x_230 <= 1
 0 <= x_231 <= 1
 0 <= x_232 <= 1
 0 <= x_233 <= 1
 0 <= x_234 <= 1
 0 <= x_235 <= 1
 0 <= x_236 <= 1
 0 <= x_237 <= 1
 0 <= x_238 <= 1
 0 <= x_239 <= 1
 0 <= x_240 <= 1
 0 <= x_241 <= 1
 0 <= x_242 <= 1
 0 <= x_243 <= 1
 0 <= x_244 <= 1
 0 <= x_245 <= 1
 0 <= x_246 <= 1
 0 <= x_247 <= 1
 0 <= x_248 <= 1
 0 <= x_249 <= 1
 0 <= x_250 <= 1
 0 <= x_251 <= 1
 0 <= x_252 <= 1
 0 <= x_253 <= 1
 0 <= x_254 <= 1
 0 <= x_255 <= 1
 0 <= x_256 <= 1
 0 <= x_257 <= 1
 0 <= x_258 <= 1
 0 <= x_259 <= 1
 0 <= x_260 <= 1
 0 <= x_261 <= 1
 0 <= x_262 <= 1
 0 <= x_263 <= 1
 0 <= x_264 <= 1
 0 <= x_265 <= 1
 0 <= x_266 <= 1
 0 <= x_267 <= 1
 0 <= x_268 <= 1
 0 <= x_269 <= 1
 0 <= x_270 <= 1
 0 <= x_271 <= 1
 0 <= x_272 <= 1
 0 <= x_273 <= 1
 0 <= x_274 <= 1
 0 <= x_275 <= 1
 0 <= x_276 <= 1
 0 <= x_277 <= 1
 0 <= x_278 <= 1
 0 <= x_279 <= 1
 0 <= x_280 <= 1
 0 <= x_281 <= 1
 0 <= x_282 <= 1
 0 <= x_283 <= 1
 0 <= x_284 <= 1
 0 <= x_285 <= 1
 0 <= x_286 <= 1
 0 <= x_287 <= 1
 0 <= x_288 <= 1

Generals
 x_1
 x_2
 x_3
 x_4
 x_5
 x_6
 x_7
 x_8
 x_9
 x_10
 x_11
 x_12
 x_13
 x_14
 x_15
 x_16
 x_17
 x_18
 x_19
 x_20
 x_21
 x_22
 x_23
 x_24
 x_25
 x_26
 x_27
 x_28
 x_29
 x_30
 x_31
 x_32
 x_33
 x_34
 x_35
 x_36
 x_37
 x_38
 x_39
 x_40
 x_41
 x_42
 x_43
 x_44
 x_45
 x_46
 x_47
 x_48
 x_49
 x_50
 x_51
 x_52
 x_53
 x_54
 x_55
 x_56
 x_57
 x_58
 x_59
 x_60
 x_61
 x_62
 x_63
 x_64
 x_65
 x_66
 x_67
 x_68
 x_69
 x_70
 x_71
 x_72
 x_73
 x_74
 x_75
 x_76
 x_77
 x_78
 x_79
 x_80
 x_81
 x_82
 x_83
 x_84
 x_85
 x_86
 x_87
 x_88
 x_89
 x_90
 x_91
 x_92
 x_93
 x_94
 x_95
 x_96
 x_97
 x_98
 x_99
 x_100
 x_101
 x_102
 x_103
 x_104
 x_105
 x_106
 x_107
 x_108
 x_109
 x_110
 x_111
 x_112
 x_113
 x_114
 x_115
 x_116
 x_117
 x_118
 x_119
 x_120
 x_121
 x_122
 x_123
 x_124
 x_125
 x_126
 x_127
 x_128
 x_129
 x_130
 x_131
 x_132
 x_133
 x_134
 x_135
 x_136
 x_137
 x_138
 x_139
 x_140
 x_141
 x_142
 x_143
 x_144
 x_145
 x_146
 x_147
 x_148
 x_149
 x_150
 x_151
 x_152
 x_153
 x_154
 x_155
 x_156
 x_157
 x_158
 x_159
 x_160
 x_161
 x_162
 x_163
 x_164
 x_165
 x_166
 x_167
 x_168
 x_169
 x_170
 x_171
 x_172
 x_173
 x_174
 x_175
 x_176
 x_177
 x_178
 x_179
 x_180
 x_181
 x_182
 x_183
 x_184
 x_185
 x_186
 x_187
 x_188
 x_189
 x_190
 x_191
 x_192
 x_193
 x_194
 x_195
 x_196
 x_197
 x_198
 x_199
 x_200
 x_201
 x_202
 x_203
 x_204
 x_205
 x_206
 x_207
 x_208
 x_209
 x_210
 x_211
 x_212
 x_213
 x_214
 x_215
 x_216
 x_217
 x_218
 x_219
 x_220
 x_221
 x_222
 x_223
 x_224
 x_225
 x_226
 x_227
 x_228
 x_229
 x_230
 x_231
 x_232
 x_233
 x_234
 x_235
 x_236
 x_237
 x_238
 x_239
 x_240
 x_241
 x_242
 x_243
 x_244
 x_245
 x_246
 x_247
 x_248
 x_249
 x_250
 x_251
 x_252
 x_253
 x_254
 x_255
 x_256
 x_257
 x_258
 x_259
 x_260
 x_261
 x_262
 x_263
 x_264
 x_265
 x_266
 x_267
 x_268
 x_269
 x_270
 x_271
 x_272
 x_273
 x_274
 x_275
 x_276
 x_277
 x_278
 x_279
 x_280
 x_281
 x_282
 x_283
 x_284
 x_285
 x_286
 x_287
 x_288

End
